&control
    title= 'hfo'
    calculation='scf'
    prefix='hfo'
    pseudo_dir='./'
    tstress=.true.
    tprnfor=.true.
    etot_conv_thr=1.D-7,
    forc_conv_thr=1.D-6,
    verbosity='high'
    wf_collect=.true.
    nstep=300
 /
 &system
    ibrav=0
    nat= 12
    ntyp=2
    ecutwfc = 50.0,
    smearing = 'gaussian'
    degauss = 0.003
 /
 &electrons
    diagonalization='david'
    conv_thr =  1.0d-10
 /
&IONS
  upscale           = 100.D0,
/
&CELL
  cell_dynamics     = 'bfgs'
  press_conv_thr    = 0.5d0
!  cell_dofree=xyz
/
ATOMIC_SPECIES
Hf  178.49     hf.upf
 O  15.9994    o.upf
K_POINTS (automatic)
4 4 4 0 0 0
CELL_PARAMETERS (angstrom)
   5.159661612   0.000000000   0.000000000
   0.000000000   4.848914891   0.000000000
   0.000000000   0.000000000   5.331923736
ATOMIC_POSITIONS (crystal)
Hf       0.250000000   0.212146829   0.750000000
Hf       0.750000000   0.787853171   0.750000000
Hf       0.250000000   0.787853171   0.250000000
Hf       0.750000000   0.212146829   0.250000000
O        0.000000000   0.500000000   0.750000000
O        0.500000000   0.500000000   0.750000000
O        0.500000000   0.500000000   0.250000000
O        0.000000000   0.500000000   0.250000000
O        0.500000000   0.000000000   1.000000000
O        0.000000000   0.000000000   0.500000000
O        0.000000000   0.000000000   1.000000000
O        0.500000000   0.000000000   0.500000000
